NAME 
ROWS
 N  OBJ
 L  R0      
 L  R1      
 L  R2      
 E  R3      
 E  R4      
 E  R5      
 E  R6      
 E  R7      
 E  R8      
 E  R9      
 E  R10     
 E  R11     
 E  R12     
 E  R13     
 E  R14     
 E  R15     
 E  R16     
 E  R17     
COLUMNS
    MARKER    'MARKER'                 'INTORG'
    I0(8)     OBJ       87
    I0(8)     R0        -140
    I0(8)     R1        131
    I0(8)     R2        35
    I0(8)     R3        5
    I0(8)     R4        5
    I0(8)     R6        4
    I0(8)     R7        4
    I0(8)     R17       1
    I1(10)    OBJ       79
    I1(10)    R0        184
    I1(10)    R1        169
    I1(10)    R2        -75
    I1(10)    R3        13
    I1(10)    R4        5
    I1(10)    R5        1
    I1(10)    R6        12
    I1(10)    R7        4
    I1(10)    R8        18
    I1(10)    R17       1
    I2(10)    OBJ       143
    I2(10)    R0        11
    I2(10)    R1        138
    I2(10)    R2        -47
    I2(10)    R3        1
    I2(10)    R4        19
    I2(10)    R5        -1
    I2(10)    R6        15
    I2(10)    R7        12
    I2(10)    R8        15
    I2(10)    R17       1
    I3(10)    OBJ       -88
    I3(10)    R0        -70
    I3(10)    R1        -114
    I3(10)    R2        -43
    I3(10)    R3        6
    I3(10)    R4        3
    I3(10)    R5        -1
    I3(10)    R6        10
    I3(10)    R7        8
    I3(10)    R8        -1
    I3(10)    R17       1
    I4(7)     OBJ       -80
    I4(7)     R0        -149
    I4(7)     R1        -1
    I4(7)     R2        30
    I4(7)     R3        5
    I4(7)     R4        9
    I4(7)     R8        15
    I4(7)     R17       1
    I5(9)     OBJ       84
    I5(9)     R0        44
    I5(9)     R1        120
    I5(9)     R2        99
    I5(9)     R3        6
    I5(9)     R4        6
    I5(9)     R5        6
    I5(9)     R7        14
    I5(9)     R8        1
    I5(9)     R17       1
    MARKER    'MARKER'                 'INTEND'
    C6(15)    OBJ       -2
    C6(15)    R0        1
    C6(15)    R1        3
    C6(15)    R2        -3
    C6(15)    R3        18
    C6(15)    R4        3
    C6(15)    R5        19
    C6(15)    R7        9
    C6(15)    R9        8
    C6(15)    R10       6
    C6(15)    R11       16
    C6(15)    R12       3
    C6(15)    R13       15
    C6(15)    R14       12
    C6(15)    R15       18
    C6(15)    R16       6
    C7(11)    OBJ       5
    C7(11)    R0        -6
    C7(11)    R1        9
    C7(11)    R2        -3
    C7(11)    R3        15
    C7(11)    R6        1
    C7(11)    R9        3
    C7(11)    R10       18
    C7(11)    R11       8
    C7(11)    R14       14
    C7(11)    R15       18
    C7(11)    R16       11
    C8(15)    OBJ       6
    C8(15)    R0        -5
    C8(15)    R1        6
    C8(15)    R2        5
    C8(15)    R4        18
    C8(15)    R5        1
    C8(15)    R7        18
    C8(15)    R8        15
    C8(15)    R9        12
    C8(15)    R10       1
    C8(15)    R11       10
    C8(15)    R12       12
    C8(15)    R13       2
    C8(15)    R14       13
    C8(15)    R15       1
    C8(15)    R16       10
    C9(13)    R0        8
    C9(13)    R1        1
    C9(13)    R2        7
    C9(13)    R3        11
    C9(13)    R5        2
    C9(13)    R6        7
    C9(13)    R7        4
    C9(13)    R8        12
    C9(13)    R11       -1
    C9(13)    R12       -1
    C9(13)    R13       12
    C9(13)    R14       19
    C9(13)    R15       4
    C10(13)   R0        -5
    C10(13)   R1        -5
    C10(13)   R2        3
    C10(13)   R5        2
    C10(13)   R7        12
    C10(13)   R8        7
    C10(13)   R9        17
    C10(13)   R10       12
    C10(13)   R12       10
    C10(13)   R13       5
    C10(13)   R14       4
    C10(13)   R15       10
    C10(13)   R16       10
    C11(16)   OBJ       2
    C11(16)   R0        -2
    C11(16)   R1        9
    C11(16)   R2        7
    C11(16)   R3        -1
    C11(16)   R4        14
    C11(16)   R6        9
    C11(16)   R7        19
    C11(16)   R8        11
    C11(16)   R9        4
    C11(16)   R10       7
    C11(16)   R11       4
    C11(16)   R12       10
    C11(16)   R13       15
    C11(16)   R14       8
    C11(16)   R15       4
    C11(16)   R16       9
    C12(14)   OBJ       4
    C12(14)   R0        6
    C12(14)   R1        -6
    C12(14)   R2        -9
    C12(14)   R3        9
    C12(14)   R4        14
    C12(14)   R6        15
    C12(14)   R7        5
    C12(14)   R8        19
    C12(14)   R9        9
    C12(14)   R11       5
    C12(14)   R13       16
    C12(14)   R14       15
    C12(14)   R15       10
    C12(14)   R16       14
    C13(17)   OBJ       6
    C13(17)   R0        6
    C13(17)   R1        -5
    C13(17)   R2        4
    C13(17)   R3        15
    C13(17)   R4        1
    C13(17)   R5        18
    C13(17)   R6        2
    C13(17)   R7        1
    C13(17)   R8        18
    C13(17)   R9        7
    C13(17)   R10       13
    C13(17)   R11       18
    C13(17)   R12       4
    C13(17)   R13       5
    C13(17)   R14       12
    C13(17)   R15       7
    C13(17)   R16       4
    C14(12)   OBJ       -7
    C14(12)   R0        -8
    C14(12)   R1        4
    C14(12)   R2        -3
    C14(12)   R3        17
    C14(12)   R4        -1
    C14(12)   R5        14
    C14(12)   R6        5
    C14(12)   R10       8
    C14(12)   R12       11
    C14(12)   R14       8
    C14(12)   R15       19
    C14(12)   R16       16
    C15(1)    R3        1
    C16(1)    R4        1
    C17(1)    R5        1
    C18(1)    R6        1
    C19(1)    R7        1
    C20(1)    R8        1
    C21(1)    R9        1
    C22(1)    R10       1
    C23(1)    R11       1
    C24(1)    R12       1
    C25(1)    R13       1
    C26(1)    R14       1
    C27(1)    R15       1
    C28(1)    R16       1
    C29(1)    R17       1
RHS
    RHS1      R0        -1.7152941176470588e+02
    RHS1      R1        -2.1223529411764704e+02
    RHS1      R2        -9.7823529411764710e+01
    RHS1      R3        79
    RHS1      R4        63
    RHS1      R5        55
    RHS1      R6        81
    RHS1      R7        77
    RHS1      R8        77
    RHS1      R9        65
    RHS1      R10       76
    RHS1      R11       67
    RHS1      R12       90
    RHS1      R13       84
    RHS1      R14       81
    RHS1      R15       96
    RHS1      R16       73
    RHS1      R17       2
BOUNDS
 UP BND1      I0(8)     2
 UP BND1      I1(10)    2
 UP BND1      I2(10)    2
 UP BND1      I3(10)    2
 UP BND1      I4(7)     2
 UP BND1      I5(9)     2
ENDATA
